.Version 10.3.4.6 of ABINIT, released Nov 2024.

 ABINIT is a project of the Universite Catholique de Louvain,
 Corning Inc. and other collaborators, see ~abinit/doc/developers/contributors.txt .
 acknowledgments of the ABINIT effort.

.Starting date : Thu 20 Feb 2025.
- ( at 17h58 )

- input  file    -> dfpt.abi
- output file    -> dfpt.abo
- root for input  files -> dfpti
- root for output files -> dfpto

 DATASET    1 : space group Fm -3 m (#225); Bravais cF (face-center cubic)
     intxc =       0      iscf =      -3    lmnmax =       5     lnmax =       5
     mgfft =      30  mpssoang =       3    mqgrid =    3001     natom =       2
  nloc_mem =       1    nspden =       1   nspinor =       1    nsppol =       1
      nsym =      48    n1xccc =    2501    ntypat =       2    occopt =       1
   xclevel =       2
-    mband =           5        mffmem =           1         mkmem =           4
-   mkqmem =           4        mk1mem =           4           mpw =         896
      nfft =       27000          nkpt =          14
  Rough estimation (10% accuracy) of disk space for files :

[...]

 DATASET    5 : space group Fm -3 m (#225); Bravais cF (face-center cubic)
     intxc =       0      iscf =       7    lmnmax =       5     lnmax =       5
     mgfft =      30  mpssoang =       3    mqgrid =    3001     natom =       2
  nloc_mem =       1    nspden =       1   nspinor =       1    nsppol =       1
      nsym =      48    n1xccc =    2501    ntypat =       2    occopt =       1
   xclevel =       2
-    mband =           5        mffmem =           1         mkmem =           7
-   mkqmem =           7        mk1mem =           7           mpw =         896
      nfft =       27000          nkpt =          27
  Rough estimation (10% accuracy) of disk space for files :

------------- Echo of variables that govern the present computation ------------
-
- outvars: echo of selected default values
-   iomode0 =  0 , fftalg0 =312 , wfoptalg0 =  0
-
- outvars: echo of global parameters not present in the input file
-  max_nthreads =    0
-
 -outvars: echo values of preprocessed input variables --------
-          iomode           3
            acell      7.6750000000E+00  7.6750000000E+00  7.6750000000E+00 Bohr
              amu      6.94100000E+00  1.89984032E+01
             ecut      3.00000000E+01 Hartree
-          fftalg         312
           getddk1          0
           getddk2          1
           getddk3          0
           getddk4          0
           getddk5          0
             iscf1         -3
             iscf2          7
             iscf3          7
             iscf4          7
             iscf5          7
           istwfk1       1    0    0    0    0    0    0    0    0    0
                         0    0    0    0
           istwfk2       1    0    0    0    0    0    0    0    0    0
                         0    0    0    0
           istwfk3       1    0    0    0    0    0    0    0    0    0
                         0    0    0    0    0    0    0    0    0    0
                         0    0    0    0    0    0    0
           istwfk4       1    0    0    0    0    0    0    0    0    0
                         0    0    0    0    0    0    0    0    0    0
                         0    0    0    0    0    0    0
           istwfk5       1    0    0    0    0    0    0    0    0    0
                         0    0    0    0    0    0    0    0    0    0
                         0    0    0    0    0    0    0
              ixc          11
           jdtset        1    2    3    4    5
              kpt1     0.00000000E+00  0.00000000E+00  0.00000000E+00
                       3.33333333E-01  0.00000000E+00  0.00000000E+00
                       0.00000000E+00  3.33333333E-01  0.00000000E+00
                       3.33333333E-01  3.33333333E-01  0.00000000E+00
                      -3.33333333E-01  3.33333333E-01  0.00000000E+00
                       0.00000000E+00  0.00000000E+00  3.33333333E-01
                       3.33333333E-01  0.00000000E+00  3.33333333E-01
                      -3.33333333E-01  0.00000000E+00  3.33333333E-01
                       0.00000000E+00  3.33333333E-01  3.33333333E-01
                       3.33333333E-01  3.33333333E-01  3.33333333E-01
                      -3.33333333E-01  3.33333333E-01  3.33333333E-01
                       0.00000000E+00 -3.33333333E-01  3.33333333E-01
                       3.33333333E-01 -3.33333333E-01  3.33333333E-01
                      -3.33333333E-01 -3.33333333E-01  3.33333333E-01
              kpt2     0.00000000E+00  0.00000000E+00  0.00000000E+00
                       3.33333333E-01  0.00000000E+00  0.00000000E+00
                       0.00000000E+00  3.33333333E-01  0.00000000E+00
                       3.33333333E-01  3.33333333E-01  0.00000000E+00
                      -3.33333333E-01  3.33333333E-01  0.00000000E+00
                       0.00000000E+00  0.00000000E+00  3.33333333E-01
                       3.33333333E-01  0.00000000E+00  3.33333333E-01
                      -3.33333333E-01  0.00000000E+00  3.33333333E-01
                       0.00000000E+00  3.33333333E-01  3.33333333E-01
                       3.33333333E-01  3.33333333E-01  3.33333333E-01
                      -3.33333333E-01  3.33333333E-01  3.33333333E-01
                       0.00000000E+00 -3.33333333E-01  3.33333333E-01
                       3.33333333E-01 -3.33333333E-01  3.33333333E-01
                      -3.33333333E-01 -3.33333333E-01  3.33333333E-01
              kpt3     0.00000000E+00  0.00000000E+00  0.00000000E+00
                       3.33333333E-01  0.00000000E+00  0.00000000E+00
                      -3.33333333E-01  0.00000000E+00  0.00000000E+00
                       0.00000000E+00  3.33333333E-01  0.00000000E+00
                       3.33333333E-01  3.33333333E-01  0.00000000E+00
                      -3.33333333E-01  3.33333333E-01  0.00000000E+00
                       0.00000000E+00 -3.33333333E-01  0.00000000E+00
                       3.33333333E-01 -3.33333333E-01  0.00000000E+00
                      -3.33333333E-01 -3.33333333E-01  0.00000000E+00
                       0.00000000E+00  0.00000000E+00  3.33333333E-01
                       3.33333333E-01  0.00000000E+00  3.33333333E-01
                      -3.33333333E-01  0.00000000E+00  3.33333333E-01
                       0.00000000E+00  3.33333333E-01  3.33333333E-01
                       3.33333333E-01  3.33333333E-01  3.33333333E-01
                      -3.33333333E-01  3.33333333E-01  3.33333333E-01
                       0.00000000E+00 -3.33333333E-01  3.33333333E-01
                       3.33333333E-01 -3.33333333E-01  3.33333333E-01
                      -3.33333333E-01 -3.33333333E-01  3.33333333E-01
                       0.00000000E+00  0.00000000E+00 -3.33333333E-01
                       3.33333333E-01  0.00000000E+00 -3.33333333E-01
                      -3.33333333E-01  0.00000000E+00 -3.33333333E-01
                       0.00000000E+00  3.33333333E-01 -3.33333333E-01
                       3.33333333E-01  3.33333333E-01 -3.33333333E-01
                      -3.33333333E-01  3.33333333E-01 -3.33333333E-01
                       0.00000000E+00 -3.33333333E-01 -3.33333333E-01
                       3.33333333E-01 -3.33333333E-01 -3.33333333E-01
                      -3.33333333E-01 -3.33333333E-01 -3.33333333E-01
              kpt4     0.00000000E+00  0.00000000E+00  0.00000000E+00
                       3.33333333E-01  0.00000000E+00  0.00000000E+00
                      -3.33333333E-01  0.00000000E+00  0.00000000E+00
                       0.00000000E+00  3.33333333E-01  0.00000000E+00
                       3.33333333E-01  3.33333333E-01  0.00000000E+00
                      -3.33333333E-01  3.33333333E-01  0.00000000E+00
                       0.00000000E+00 -3.33333333E-01  0.00000000E+00
                       3.33333333E-01 -3.33333333E-01  0.00000000E+00
                      -3.33333333E-01 -3.33333333E-01  0.00000000E+00
                       0.00000000E+00  0.00000000E+00  3.33333333E-01
                       3.33333333E-01  0.00000000E+00  3.33333333E-01
                      -3.33333333E-01  0.00000000E+00  3.33333333E-01
                       0.00000000E+00  3.33333333E-01  3.33333333E-01
                       3.33333333E-01  3.33333333E-01  3.33333333E-01
                      -3.33333333E-01  3.33333333E-01  3.33333333E-01
                       0.00000000E+00 -3.33333333E-01  3.33333333E-01
                       3.33333333E-01 -3.33333333E-01  3.33333333E-01
                      -3.33333333E-01 -3.33333333E-01  3.33333333E-01
                       0.00000000E+00  0.00000000E+00 -3.33333333E-01
                       3.33333333E-01  0.00000000E+00 -3.33333333E-01
                      -3.33333333E-01  0.00000000E+00 -3.33333333E-01
                       0.00000000E+00  3.33333333E-01 -3.33333333E-01
                       3.33333333E-01  3.33333333E-01 -3.33333333E-01
                      -3.33333333E-01  3.33333333E-01 -3.33333333E-01
                       0.00000000E+00 -3.33333333E-01 -3.33333333E-01
                       3.33333333E-01 -3.33333333E-01 -3.33333333E-01
                      -3.33333333E-01 -3.33333333E-01 -3.33333333E-01
              kpt5     0.00000000E+00  0.00000000E+00  0.00000000E+00
                       3.33333333E-01  0.00000000E+00  0.00000000E+00
                      -3.33333333E-01  0.00000000E+00  0.00000000E+00
                       0.00000000E+00  3.33333333E-01  0.00000000E+00
                       3.33333333E-01  3.33333333E-01  0.00000000E+00
                      -3.33333333E-01  3.33333333E-01  0.00000000E+00
                       0.00000000E+00 -3.33333333E-01  0.00000000E+00
                       3.33333333E-01 -3.33333333E-01  0.00000000E+00
                      -3.33333333E-01 -3.33333333E-01  0.00000000E+00
                       0.00000000E+00  0.00000000E+00  3.33333333E-01
                       3.33333333E-01  0.00000000E+00  3.33333333E-01
                      -3.33333333E-01  0.00000000E+00  3.33333333E-01
                       0.00000000E+00  3.33333333E-01  3.33333333E-01
                       3.33333333E-01  3.33333333E-01  3.33333333E-01
                      -3.33333333E-01  3.33333333E-01  3.33333333E-01
                       0.00000000E+00 -3.33333333E-01  3.33333333E-01
                       3.33333333E-01 -3.33333333E-01  3.33333333E-01
                      -3.33333333E-01 -3.33333333E-01  3.33333333E-01
                       0.00000000E+00  0.00000000E+00 -3.33333333E-01
                       3.33333333E-01  0.00000000E+00 -3.33333333E-01
                      -3.33333333E-01  0.00000000E+00 -3.33333333E-01
                       0.00000000E+00  3.33333333E-01 -3.33333333E-01
                       3.33333333E-01  3.33333333E-01 -3.33333333E-01
                      -3.33333333E-01  3.33333333E-01 -3.33333333E-01
                       0.00000000E+00 -3.33333333E-01 -3.33333333E-01
                       3.33333333E-01 -3.33333333E-01 -3.33333333E-01
[...]
             iscf2          7
             iscf3          7
             iscf4          7
             iscf5          7
           istwfk1       1    0    0    0    0    0    0    0    0    0
                         0    0    0    0
           istwfk2       1    0    0    0    0    0    0    0    0    0
                         0    0    0    0
           istwfk3       1    0    0    0    0    0    0    0    0    0
                         0    0    0    0    0    0    0    0    0    0
                         0    0    0    0    0    0    0
           istwfk4       1    0    0    0    0    0    0    0    0    0
                         0    0    0    0    0    0    0    0    0    0
                         0    0    0    0    0    0    0
           istwfk5       1    0    0    0    0    0    0    0    0    0
                         0    0    0    0    0    0    0    0    0    0
                         0    0    0    0    0    0    0
              ixc          11
           jdtset        1    2    3    4    5
              kpt1     0.00000000E+00  0.00000000E+00  0.00000000E+00
                       3.33333333E-01  0.00000000E+00  0.00000000E+00
                       0.00000000E+00  3.33333333E-01  0.00000000E+00
                       3.33333333E-01  3.33333333E-01  0.00000000E+00
                      -3.33333333E-01  3.33333333E-01  0.00000000E+00
                       0.00000000E+00  0.00000000E+00  3.33333333E-01
                       3.33333333E-01  0.00000000E+00  3.33333333E-01
                      -3.33333333E-01  0.00000000E+00  3.33333333E-01
                       0.00000000E+00  3.33333333E-01  3.33333333E-01
                       3.33333333E-01  3.33333333E-01  3.33333333E-01
                      -3.33333333E-01  3.33333333E-01  3.33333333E-01
                       0.00000000E+00 -3.33333333E-01  3.33333333E-01
                       3.33333333E-01 -3.33333333E-01  3.33333333E-01
                      -3.33333333E-01 -3.33333333E-01  3.33333333E-01
              kpt2     0.00000000E+00  0.00000000E+00  0.00000000E+00
                       3.33333333E-01  0.00000000E+00  0.00000000E+00
                       0.00000000E+00  3.33333333E-01  0.00000000E+00
                       3.33333333E-01  3.33333333E-01  0.00000000E+00
                      -3.33333333E-01  3.33333333E-01  0.00000000E+00
                       0.00000000E+00  0.00000000E+00  3.33333333E-01
                       3.33333333E-01  0.00000000E+00  3.33333333E-01
                      -3.33333333E-01  0.00000000E+00  3.33333333E-01
                       0.00000000E+00  3.33333333E-01  3.33333333E-01
                       3.33333333E-01  3.33333333E-01  3.33333333E-01
                      -3.33333333E-01  3.33333333E-01  3.33333333E-01
                       0.00000000E+00 -3.33333333E-01  3.33333333E-01
                       3.33333333E-01 -3.33333333E-01  3.33333333E-01
                      -3.33333333E-01 -3.33333333E-01  3.33333333E-01
              kpt3     0.00000000E+00  0.00000000E+00  0.00000000E+00
                       3.33333333E-01  0.00000000E+00  0.00000000E+00
                      -3.33333333E-01  0.00000000E+00  0.00000000E+00
                       0.00000000E+00  3.33333333E-01  0.00000000E+00
                       3.33333333E-01  3.33333333E-01  0.00000000E+00
                      -3.33333333E-01  3.33333333E-01  0.00000000E+00
                       0.00000000E+00 -3.33333333E-01  0.00000000E+00
                       3.33333333E-01 -3.33333333E-01  0.00000000E+00
                      -3.33333333E-01 -3.33333333E-01  0.00000000E+00
                       0.00000000E+00  0.00000000E+00  3.33333333E-01
                       3.33333333E-01  0.00000000E+00  3.33333333E-01
                      -3.33333333E-01  0.00000000E+00  3.33333333E-01
                       0.00000000E+00  3.33333333E-01  3.33333333E-01
                       3.33333333E-01  3.33333333E-01  3.33333333E-01
                      -3.33333333E-01  3.33333333E-01  3.33333333E-01
                       0.00000000E+00 -3.33333333E-01  3.33333333E-01
                       3.33333333E-01 -3.33333333E-01  3.33333333E-01
                      -3.33333333E-01 -3.33333333E-01  3.33333333E-01
                       0.00000000E+00  0.00000000E+00 -3.33333333E-01
                       3.33333333E-01  0.00000000E+00 -3.33333333E-01
                      -3.33333333E-01  0.00000000E+00 -3.33333333E-01
                       0.00000000E+00  3.33333333E-01 -3.33333333E-01
                       3.33333333E-01  3.33333333E-01 -3.33333333E-01
                      -3.33333333E-01  3.33333333E-01 -3.33333333E-01
                       0.00000000E+00 -3.33333333E-01 -3.33333333E-01
                       3.33333333E-01 -3.33333333E-01 -3.33333333E-01
                      -3.33333333E-01 -3.33333333E-01 -3.33333333E-01
              kpt4     0.00000000E+00  0.00000000E+00  0.00000000E+00
                       3.33333333E-01  0.00000000E+00  0.00000000E+00
                      -3.33333333E-01  0.00000000E+00  0.00000000E+00
                       0.00000000E+00  3.33333333E-01  0.00000000E+00
                       3.33333333E-01  3.33333333E-01  0.00000000E+00
                      -3.33333333E-01  3.33333333E-01  0.00000000E+00
                       0.00000000E+00 -3.33333333E-01  0.00000000E+00
                       3.33333333E-01 -3.33333333E-01  0.00000000E+00
                      -3.33333333E-01 -3.33333333E-01  0.00000000E+00
                       0.00000000E+00  0.00000000E+00  3.33333333E-01
                       3.33333333E-01  0.00000000E+00  3.33333333E-01
                      -3.33333333E-01  0.00000000E+00  3.33333333E-01
                       0.00000000E+00  3.33333333E-01  3.33333333E-01
                       3.33333333E-01  3.33333333E-01  3.33333333E-01
                      -3.33333333E-01  3.33333333E-01  3.33333333E-01
                       0.00000000E+00 -3.33333333E-01  3.33333333E-01
                       3.33333333E-01 -3.33333333E-01  3.33333333E-01
                      -3.33333333E-01 -3.33333333E-01  3.33333333E-01
                       0.00000000E+00  0.00000000E+00 -3.33333333E-01
                       3.33333333E-01  0.00000000E+00 -3.33333333E-01
                      -3.33333333E-01  0.00000000E+00 -3.33333333E-01
                       0.00000000E+00  3.33333333E-01 -3.33333333E-01
                       3.33333333E-01  3.33333333E-01 -3.33333333E-01
                      -3.33333333E-01  3.33333333E-01 -3.33333333E-01
                       0.00000000E+00 -3.33333333E-01 -3.33333333E-01
                       3.33333333E-01 -3.33333333E-01 -3.33333333E-01
                      -3.33333333E-01 -3.33333333E-01 -3.33333333E-01
              kpt5     0.00000000E+00  0.00000000E+00  0.00000000E+00
                       3.33333333E-01  0.00000000E+00  0.00000000E+00
                      -3.33333333E-01  0.00000000E+00  0.00000000E+00
                       0.00000000E+00  3.33333333E-01  0.00000000E+00
                       3.33333333E-01  3.33333333E-01  0.00000000E+00
                      -3.33333333E-01  3.33333333E-01  0.00000000E+00
                       0.00000000E+00 -3.33333333E-01  0.00000000E+00
                       3.33333333E-01 -3.33333333E-01  0.00000000E+00
                      -3.33333333E-01 -3.33333333E-01  0.00000000E+00
                       0.00000000E+00  0.00000000E+00  3.33333333E-01
                       3.33333333E-01  0.00000000E+00  3.33333333E-01
                      -3.33333333E-01  0.00000000E+00  3.33333333E-01
                       0.00000000E+00  3.33333333E-01  3.33333333E-01
                       3.33333333E-01  3.33333333E-01  3.33333333E-01
                      -3.33333333E-01  3.33333333E-01  3.33333333E-01
                       0.00000000E+00 -3.33333333E-01  3.33333333E-01
                       3.33333333E-01 -3.33333333E-01  3.33333333E-01
                      -3.33333333E-01 -3.33333333E-01  3.33333333E-01
                       0.00000000E+00  0.00000000E+00 -3.33333333E-01
                       3.33333333E-01  0.00000000E+00 -3.33333333E-01
                      -3.33333333E-01  0.00000000E+00 -3.33333333E-01
                       0.00000000E+00  3.33333333E-01 -3.33333333E-01
                       3.33333333E-01  3.33333333E-01 -3.33333333E-01
                      -3.33333333E-01  3.33333333E-01 -3.33333333E-01
                       0.00000000E+00 -3.33333333E-01 -3.33333333E-01
                       3.33333333E-01 -3.33333333E-01 -3.33333333E-01
                      -3.33333333E-01 -3.33333333E-01 -3.33333333E-01
           kptopt1          2
           kptopt2          2
           kptopt3          3
           kptopt4          3
           kptopt5          3
         kptrlatt        3    0    0      0    3    0      0    0    3
          kptrlen      1.62811336E+01
P           mkmem1          4
P           mkmem2          4
P           mkmem3          7
P           mkmem4          7
P           mkmem5          7
P          mkqmem1          4
P          mkqmem2          4
P          mkqmem3          7
P          mkqmem4          7
P          mkqmem5          7
P          mk1mem1          4
P          mk1mem2          4
P          mk1mem3          7
P          mk1mem4          7
P          mk1mem5          7
            natom           2
            nband1          5
            nband2          5
            nband3          5
            nband4          5
            nband5          5
           ndtset           5
            ngfft          30      30      30
             nkpt1         14
             nkpt2         14
             nkpt3         27
             nkpt4         27
             nkpt5         27
             nqpt           1
             nsym          48
           ntypat           2
              occ1     2.000000  2.000000  2.000000  2.000000  2.000000
              occ2     2.000000  2.000000  2.000000  2.000000  2.000000
              occ3     2.000000  2.000000  2.000000  2.000000  2.000000
              occ4     2.000000  2.000000  2.000000  2.000000  2.000000
              occ5     2.000000  2.000000  2.000000  2.000000  2.000000
        optdriver           1
           prteig           0
           prtpot           1
            prtwf1          1
            prtwf2          0
            prtwf3          0
            prtwf4          0
            prtwf5          0
              qpt1     0.00000000E+00  0.00000000E+00  0.00000000E+00
              qpt2     0.00000000E+00  0.00000000E+00  0.00000000E+00
              qpt3     3.33333333E-01  0.00000000E+00  0.00000000E+00
              qpt4     3.33333333E-01  3.33333333E-01  0.00000000E+00
              qpt5    -3.33333333E-01  3.33333333E-01  0.00000000E+00
           rfelfd1          2
           rfelfd2          3
           rfelfd3          0
           rfelfd4          0
           rfelfd5          0
           rfphon1          0
           rfphon2          1
           rfphon3          1
           rfphon4          1
           rfphon5          1
            rprim      0.0000000000E+00  5.0000000000E-01  5.0000000000E-01
                       5.0000000000E-01  0.0000000000E+00  5.0000000000E-01
                       5.0000000000E-01  5.0000000000E-01  0.0000000000E+00
          spgroup         225
           strten2     0.0000000000E+00  0.0000000000E+00  0.0000000000E+00
                       0.0000000000E+00  0.0000000000E+00  0.0000000000E+00
           strten3     0.0000000000E+00  0.0000000000E+00  0.0000000000E+00
                       0.0000000000E+00  0.0000000000E+00  0.0000000000E+00
           strten4     0.0000000000E+00  0.0000000000E+00  0.0000000000E+00
                       0.0000000000E+00  0.0000000000E+00  0.0000000000E+00
           strten5     0.0000000000E+00  0.0000000000E+00  0.0000000000E+00
                       0.0000000000E+00  0.0000000000E+00  0.0000000000E+00
           symrel      1  0  0   0  1  0   0  0  1      -1  0  0   0 -1  0   0  0 -1
                       0 -1  1   0 -1  0   1 -1  0       0  1 -1   0  1  0  -1  1  0
                      -1  0  0  -1  0  1  -1  1  0       1  0  0   1  0 -1   1 -1  0
                       0  1 -1   1  0 -1   0  0 -1       0 -1  1  -1  0  1   0  0  1
                      -1  0  0  -1  1  0  -1  0  1       1  0  0   1 -1  0   1  0 -1
                       0 -1  1   1 -1  0   0 -1  0       0  1 -1  -1  1  0   0  1  0
                       1  0  0   0  0  1   0  1  0      -1  0  0   0  0 -1   0 -1  0
                       0  1 -1   0  0 -1   1  0 -1       0 -1  1   0  0  1  -1  0  1
                      -1  0  1  -1  1  0  -1  0  0       1  0 -1   1 -1  0   1  0  0
                       0 -1  0   1 -1  0   0 -1  1       0  1  0  -1  1  0   0  1 -1
                       1  0 -1   0  0 -1   0  1 -1      -1  0  1   0  0  1   0 -1  1
                       0  1  0   0  0  1   1  0  0       0 -1  0   0  0 -1  -1  0  0
                       1  0 -1   0  1 -1   0  0 -1      -1  0  1   0 -1  1   0  0  1
                       0 -1  0   0 -1  1   1 -1  0       0  1  0   0  1 -1  -1  1  0
                      -1  0  1  -1  0  0  -1  1  0       1  0 -1   1  0  0   1 -1  0
                       0  1  0   1  0  0   0  0  1       0 -1  0  -1  0  0   0  0 -1
                       0  0 -1   0  1 -1   1  0 -1       0  0  1   0 -1  1  -1  0  1
                       1 -1  0   0 -1  1   0 -1  0      -1  1  0   0  1 -1   0  1  0
                       0  0  1   1  0  0   0  1  0       0  0 -1  -1  0  0   0 -1  0
                      -1  1  0  -1  0  0  -1  0  1       1 -1  0   1  0  0   1  0 -1
                       0  0  1   0  1  0   1  0  0       0  0 -1   0 -1  0  -1  0  0
                       1 -1  0   0 -1  0   0 -1  1      -1  1  0   0  1  0   0  1 -1
                       0  0 -1   1  0 -1   0  1 -1       0  0  1  -1  0  1   0 -1  1
                      -1  1  0  -1  0  1  -1  0  0       1 -1  0   1  0 -1   1  0  0
           tolvrs1     0.00000000E+00
           tolvrs2     1.00000000E-08
           tolvrs3     1.00000000E-08
           tolvrs4     1.00000000E-08
           tolvrs5     1.00000000E-08
           tolwfr1     1.00000000E-20
           tolwfr2     0.00000000E+00
           tolwfr3     0.00000000E+00
           tolwfr4     0.00000000E+00
           tolwfr5     0.00000000E+00
            typat      1  2
              wtk1       0.03704    0.07407    0.07407    0.07407    0.07407    0.07407
                         0.07407    0.07407    0.07407    0.07407    0.07407    0.07407
                         0.07407    0.07407
              wtk2       0.03704    0.07407    0.07407    0.07407    0.07407    0.07407
                         0.07407    0.07407    0.07407    0.07407    0.07407    0.07407
                         0.07407    0.07407
              wtk3       0.03704    0.03704    0.03704    0.03704    0.03704    0.03704
                         0.03704    0.03704    0.03704    0.03704    0.03704    0.03704
                         0.03704    0.03704    0.03704    0.03704    0.03704    0.03704
                         0.03704    0.03704    0.03704    0.03704    0.03704    0.03704
                         0.03704    0.03704    0.03704
              wtk4       0.03704    0.03704    0.03704    0.03704    0.03704    0.03704
                         0.03704    0.03704    0.03704    0.03704    0.03704    0.03704
                         0.03704    0.03704    0.03704    0.03704    0.03704    0.03704
                         0.03704    0.03704    0.03704    0.03704    0.03704    0.03704
                         0.03704    0.03704    0.03704
              wtk5       0.03704    0.03704    0.03704    0.03704    0.03704    0.03704
                         0.03704    0.03704    0.03704    0.03704    0.03704    0.03704
                         0.03704    0.03704    0.03704    0.03704    0.03704    0.03704
                         0.03704    0.03704    0.03704    0.03704    0.03704    0.03704
                         0.03704    0.03704    0.03704
           xangst      0.0000000000E+00  0.0000000000E+00  0.0000000000E+00
                       2.0307175380E+00  2.0307175380E+00  2.0307175380E+00
            xcart      0.0000000000E+00  0.0000000000E+00  0.0000000000E+00
                       3.8375000000E+00  3.8375000000E+00  3.8375000000E+00
             xred      0.0000000000E+00  0.0000000000E+00  0.0000000000E+00
                       5.0000000000E-01  5.0000000000E-01  5.0000000000E-01
            znucl        3.00000    9.00000

- Timing analysis has been suppressed with timopt=0

 Suggested references for the acknowledgment of ABINIT usage.

 Calculation completed.
.Delivered   1 WARNINGs and  25 COMMENTs to log file.