.Version 10.3.4.6 of ABINIT, released Nov 2024.

 ABINIT is a project of the Universite Catholique de Louvain,
 Corning Inc. and other collaborators, see ~abinit/doc/developers/contributors.txt .
 acknowledgments of the ABINIT effort.

.Starting date : Thu 20 Feb 2025.
- ( at 17h58 )

- input  file    -> ebands.abi
- output file    -> ebands.abo
- root for input  files -> ebandsi
- root for output files -> ebandso

 Symmetries : space group Fm -3 m (#225); Bravais cF (face-center cubic)
     intxc =       0    ionmov =       0      iscf =      -2    lmnmax =       5
     lnmax =       5     mgfft =      30  mpssoang =       3    mqgrid =    3001
     natom =       2  nloc_mem =       1    nspden =       1   nspinor =       1
    nsppol =       1      nsym =      48    n1xccc =    2501    ntypat =       2
    occopt =       1   xclevel =       2
-    mband =           6        mffmem =           1         mkmem =          50
       mpw =         911          nfft =       27000          nkpt =         198
  Rough estimation (10% accuracy) of disk space for files :

------------- Echo of variables that govern the present computation ------------
-
- outvars: echo of selected default values
-   iomode0 =  0 , fftalg0 =312 , wfoptalg0 =  0
-
- outvars: echo of global parameters not present in the input file
-  max_nthreads =    0
-
 -outvars: echo values of preprocessed input variables --------
-          iomode           3
            acell      7.6750000000E+00  7.6750000000E+00  7.6750000000E+00 Bohr
              amu      6.94100000E+00  1.89984032E+01
             ecut      3.00000000E+01 Hartree
-          fftalg         312
             iscf          -2
           istwfk        2    0    0    0    0    0    0    0    0    0
                         0    0    0    0    0    0    0    0    0    0
                         0    0    0    0    0    0    0    0    5    0
                         0    0    0    0    0    0    0    0    0    0
                         0    0    0    0    0    0    0    0    0    0
                       outvar_i_n : Printing only first  50 k-points.
              ixc          11
              kpt      0.00000000E+00  0.00000000E+00  0.00000000E+00
                       1.78571429E-02  0.00000000E+00  1.78571429E-02
                       3.57142857E-02  0.00000000E+00  3.57142857E-02
                       5.35714286E-02  0.00000000E+00  5.35714286E-02
                       7.14285714E-02  0.00000000E+00  7.14285714E-02
                       8.92857143E-02  0.00000000E+00  8.92857143E-02
                       1.07142857E-01  0.00000000E+00  1.07142857E-01
                       1.25000000E-01  0.00000000E+00  1.25000000E-01
                       1.42857143E-01  0.00000000E+00  1.42857143E-01
                       1.60714286E-01  0.00000000E+00  1.60714286E-01
                       1.78571429E-01  0.00000000E+00  1.78571429E-01
                       1.96428571E-01  0.00000000E+00  1.96428571E-01
                       2.14285714E-01  0.00000000E+00  2.14285714E-01
                       2.32142857E-01  0.00000000E+00  2.32142857E-01
                       2.50000000E-01  0.00000000E+00  2.50000000E-01
                       2.67857143E-01  0.00000000E+00  2.67857143E-01
                       2.85714286E-01  0.00000000E+00  2.85714286E-01
                       3.03571429E-01  0.00000000E+00  3.03571429E-01
                       3.21428571E-01  0.00000000E+00  3.21428571E-01
                       3.39285714E-01  0.00000000E+00  3.39285714E-01
                       3.57142857E-01  0.00000000E+00  3.57142857E-01
                       3.75000000E-01  0.00000000E+00  3.75000000E-01
                       3.92857143E-01  0.00000000E+00  3.92857143E-01
                       4.10714286E-01  0.00000000E+00  4.10714286E-01
                       4.28571429E-01  0.00000000E+00  4.28571429E-01
                       4.46428571E-01  0.00000000E+00  4.46428571E-01
                       4.64285714E-01  0.00000000E+00  4.64285714E-01
                       4.82142857E-01  0.00000000E+00  4.82142857E-01
                       5.00000000E-01  0.00000000E+00  5.00000000E-01
                       5.00000000E-01  1.78571429E-02  5.17857143E-01
                       5.00000000E-01  3.57142857E-02  5.35714286E-01
                       5.00000000E-01  5.35714286E-02  5.53571429E-01
                       5.00000000E-01  7.14285714E-02  5.71428571E-01
                       5.00000000E-01  8.92857143E-02  5.89285714E-01
                       5.00000000E-01  1.07142857E-01  6.07142857E-01
                       5.00000000E-01  1.25000000E-01  6.25000000E-01
                       5.00000000E-01  1.42857143E-01  6.42857143E-01
                       5.00000000E-01  1.60714286E-01  6.60714286E-01
                       5.00000000E-01  1.78571429E-01  6.78571429E-01
                       5.00000000E-01  1.96428571E-01  6.96428571E-01
                       5.00000000E-01  2.14285714E-01  7.14285714E-01
                       5.00000000E-01  2.32142857E-01  7.32142857E-01
                       5.00000000E-01  2.50000000E-01  7.50000000E-01
                       4.87500000E-01  2.62500000E-01  7.50000000E-01
                       4.75000000E-01  2.75000000E-01  7.50000000E-01
                       4.62500000E-01  2.87500000E-01  7.50000000E-01
                       4.50000000E-01  3.00000000E-01  7.50000000E-01
                       4.37500000E-01  3.12500000E-01  7.50000000E-01
                       4.25000000E-01  3.25000000E-01  7.50000000E-01
                       4.12500000E-01  3.37500000E-01  7.50000000E-01
                       outvar_i_n : Printing only first  50 k-points.
           kptopt         -11
P           mkmem          50
            natom           2
            nband           6
           nbdbuf           2
           ndivsm          10
            ngfft          30      30      30
             nkpt         198
             nsym          48
           ntypat           2
           prtden           0
            prtwf           0
            rprim      0.0000000000E+00  5.0000000000E-01  5.0000000000E-01
                       5.0000000000E-01  0.0000000000E+00  5.0000000000E-01
                       5.0000000000E-01  5.0000000000E-01  0.0000000000E+00
           shiftk      5.00000000E-01  5.00000000E-01  5.00000000E-01
          spgroup         225
           symrel      1  0  0   0  1  0   0  0  1      -1  0  0   0 -1  0   0  0 -1
                       0 -1  1   0 -1  0   1 -1  0       0  1 -1   0  1  0  -1  1  0
                      -1  0  0  -1  0  1  -1  1  0       1  0  0   1  0 -1   1 -1  0
                       0  1 -1   1  0 -1   0  0 -1       0 -1  1  -1  0  1   0  0  1
                      -1  0  0  -1  1  0  -1  0  1       1  0  0   1 -1  0   1  0 -1
                       0 -1  1   1 -1  0   0 -1  0       0  1 -1  -1  1  0   0  1  0
                       1  0  0   0  0  1   0  1  0      -1  0  0   0  0 -1   0 -1  0
                       0  1 -1   0  0 -1   1  0 -1       0 -1  1   0  0  1  -1  0  1
                      -1  0  1  -1  1  0  -1  0  0       1  0 -1   1 -1  0   1  0  0
                       0 -1  0   1 -1  0   0 -1  1       0  1  0  -1  1  0   0  1 -1
                       1  0 -1   0  0 -1   0  1 -1      -1  0  1   0  0  1   0 -1  1
                       0  1  0   0  0  1   1  0  0       0 -1  0   0  0 -1  -1  0  0
                       1  0 -1   0  1 -1   0  0 -1      -1  0  1   0 -1  1   0  0  1
                       0 -1  0   0 -1  1   1 -1  0       0  1  0   0  1 -1  -1  1  0
                      -1  0  1  -1  0  0  -1  1  0       1  0 -1   1  0  0   1 -1  0
                       0  1  0   1  0  0   0  0  1       0 -1  0  -1  0  0   0  0 -1
                       0  0 -1   0  1 -1   1  0 -1       0  0  1   0 -1  1  -1  0  1
                       1 -1  0   0 -1  1   0 -1  0      -1  1  0   0  1 -1   0  1  0
                       0  0  1   1  0  0   0  1  0       0  0 -1  -1  0  0   0 -1  0
                      -1  1  0  -1  0  0  -1  0  1       1 -1  0   1  0  0   1  0 -1
                       0  0  1   0  1  0   1  0  0       0  0 -1   0 -1  0  -1  0  0
                       1 -1  0   0 -1  0   0 -1  1      -1  1  0   0  1  0   0  1 -1
                       0  0 -1   1  0 -1   0  1 -1       0  0  1  -1  0  1   0 -1  1
                      -1  1  0  -1  0  1  -1  0  0       1 -1  0   1  0 -1   1  0  0
           tolwfr      1.00000000E-22
            typat      1  2
                       outvars : Printing only first  50 k-points.
           xangst      0.0000000000E+00  0.0000000000E+00  0.0000000000E+00
                       2.0307175380E+00  2.0307175380E+00  2.0307175380E+00
            xcart      0.0000000000E+00  0.0000000000E+00  0.0000000000E+00
                       3.8375000000E+00  3.8375000000E+00  3.8375000000E+00
             xred      0.0000000000E+00  0.0000000000E+00  0.0000000000E+00
                       5.0000000000E-01  5.0000000000E-01  5.0000000000E-01
            znucl        3.00000    9.00000

 chkinp: Checking input parameters for consistency.

== DATASET  1 ==================================================================
-   mpi_nproc: 4, omp_nthreads: -1 (-1 if OMP is not activated)

--- !DatasetInfo
iteration_state: {dtset: 1, }
dimensions: {natom: 2, nkpt: 198, mband: 6, nsppol: 1, nspinor: 1, nspden: 1, mpw: 911, }
cutoff_energies: {ecut:  30.0, pawecutdg:  -1.0, }
electrons: {nelect:   1.00000000E+01, charge:   0.00000000E+00, occopt:   1.00000000E+00, tsmear:   1.00000000E-02, }
meta: {optdriver: 0, ionmov: 0, optcell: 0, iscf: -2, paral_kgb: 0, }
...

 mkfilename: getden from: gso_DEN.nc

 Real(R)+Recip(G) space primitive vectors, cartesian coordinates (Bohr,Bohr^-1):
 R(1)=  0.0000000  3.8375000  3.8375000  G(1)= -0.1302932  0.1302932  0.1302932
 R(2)=  3.8375000  0.0000000  3.8375000  G(2)=  0.1302932 -0.1302932  0.1302932
 R(3)=  3.8375000  3.8375000  0.0000000  G(3)=  0.1302932  0.1302932 -0.1302932
 Unit cell volume ucvol=  1.1302517E+02 bohr^3
 Angles (23,13,12)=  6.00000000E+01  6.00000000E+01  6.00000000E+01 degrees

 getcut: wavevector=  0.0000  0.0000  0.0000  ngfft=  30  30  30
         ecut(hartree)=     30.000   => boxcut(ratio)=   2.24447

 getcut : COMMENT -
  Note that boxcut > 2.2 ; recall that boxcut=Gcut(box)/Gcut(sphere) = 2
  is sufficient for exact treatment of convolution.
  Such a large boxcut is a waste : you could raise ecut
  e.g. ecut=   37.782398 Hartrees makes boxcut=2

--- Pseudopotential description ------------------------------------------------
- pspini: atom type   1  psp file is Li.psp8
- pspatm: opening atomic psp file    Li.psp8
- Li    ONCVPSP-3.2.3.1  r_core=   1.40824   1.10935
-  3.00000   3.00000    170503                znucl, zion, pspdat
    8   11    1    4       400   0.00000      pspcod,pspxc,lmax,lloc,mmax,r2well
    3.99000000000000    0.00000000000000    0.00000000000000   rchrg,fchrg,qchrg
     nproj     2     2
     extension_switch     1
  pspatm : epsatm=    2.74345787
         --- l  ekb(1:nproj) -->
             0   -4.951544   -1.544797
             1   -2.250662   -0.474685
[...]
 kpt# 140, nband=  6, wtk=  1.00000, kpt=  0.5000  0.3250  0.6750 (reduced coord)
  -1.54268   -0.74897   -0.11783   -0.10174   -0.06361    0.45950
 kpt# 141, nband=  6, wtk=  1.00000, kpt=  0.5000  0.3375  0.6625 (reduced coord)
  -1.54270   -0.74953   -0.11902   -0.09772   -0.06214    0.44819
 kpt# 142, nband=  6, wtk=  1.00000, kpt=  0.5000  0.3500  0.6500 (reduced coord)
  -1.54272   -0.75013   -0.12027   -0.09320   -0.06054    0.43693
 kpt# 143, nband=  6, wtk=  1.00000, kpt=  0.5000  0.3625  0.6375 (reduced coord)
  -1.54278   -0.75076   -0.12155   -0.08855   -0.05900    0.42575
 kpt# 144, nband=  6, wtk=  1.00000, kpt=  0.5000  0.3750  0.6250 (reduced coord)
  -1.54281   -0.75140   -0.12278   -0.08356   -0.05744    0.41494
 kpt# 145, nband=  6, wtk=  1.00000, kpt=  0.5000  0.3875  0.6125 (reduced coord)
  -1.54286   -0.75204   -0.12397   -0.07851   -0.05597    0.40455
 kpt# 146, nband=  6, wtk=  1.00000, kpt=  0.5000  0.4000  0.6000 (reduced coord)
  -1.54289   -0.75265   -0.12503   -0.07338   -0.05453    0.39476
 kpt# 147, nband=  6, wtk=  1.00000, kpt=  0.5000  0.4125  0.5875 (reduced coord)
  -1.54295   -0.75324   -0.12612   -0.06854   -0.05323    0.38564
 kpt# 148, nband=  6, wtk=  1.00000, kpt=  0.5000  0.4250  0.5750 (reduced coord)
  -1.54297   -0.75378   -0.12700   -0.06379   -0.05202    0.37739
 kpt# 149, nband=  6, wtk=  1.00000, kpt=  0.5000  0.4375  0.5625 (reduced coord)
  -1.54300   -0.75426   -0.12780   -0.05949   -0.05101    0.37010
 kpt# 150, nband=  6, wtk=  1.00000, kpt=  0.5000  0.4500  0.5500 (reduced coord)
  -1.54303   -0.75466   -0.12846   -0.05579   -0.05006    0.36391
 kpt# 151, nband=  6, wtk=  1.00000, kpt=  0.5000  0.4625  0.5375 (reduced coord)
  -1.54306   -0.75499   -0.12905   -0.05273   -0.04944    0.35893
 kpt# 152, nband=  6, wtk=  1.00000, kpt=  0.5000  0.4750  0.5250 (reduced coord)
  -1.54307   -0.75523   -0.12945   -0.05036   -0.04893    0.35530
 kpt# 153, nband=  6, wtk=  1.00000, kpt=  0.5000  0.4875  0.5125 (reduced coord)
  -1.54310   -0.75538   -0.12971   -0.04904   -0.04867    0.35307
 kpt# 154, nband=  6, wtk=  1.00000, kpt=  0.5000  0.5000  0.5000 (reduced coord)
  -1.54310   -0.75542   -0.12979   -0.04857   -0.04857    0.35233
 kpt# 155, nband=  6, wtk=  1.00000, kpt=  0.4926  0.4926  0.5147 (reduced coord)
  -1.54310   -0.75537   -0.12971   -0.04906   -0.04867    0.35310
 kpt# 156, nband=  6, wtk=  1.00000, kpt=  0.4853  0.4853  0.5294 (reduced coord)
  -1.54307   -0.75522   -0.12944   -0.05043   -0.04895    0.35541
 kpt# 157, nband=  6, wtk=  1.00000, kpt=  0.4779  0.4779  0.5441 (reduced coord)
  -1.54306   -0.75498   -0.12902   -0.05290   -0.04949    0.35917
 kpt# 158, nband=  6, wtk=  1.00000, kpt=  0.4706  0.4706  0.5588 (reduced coord)
  -1.54303   -0.75464   -0.12842   -0.05608   -0.05019    0.36432
 kpt# 159, nband=  6, wtk=  1.00000, kpt=  0.4632  0.4632  0.5735 (reduced coord)
  -1.54300   -0.75422   -0.12775   -0.05990   -0.05110    0.37073
 kpt# 160, nband=  6, wtk=  1.00000, kpt=  0.4559  0.4559  0.5882 (reduced coord)
  -1.54298   -0.75372   -0.12694   -0.06438   -0.05213    0.37824
 kpt# 161, nband=  6, wtk=  1.00000, kpt=  0.4485  0.4485  0.6029 (reduced coord)
  -1.54293   -0.75317   -0.12603   -0.06923   -0.05319    0.38672
 kpt# 162, nband=  6, wtk=  1.00000, kpt=  0.4412  0.4412  0.6176 (reduced coord)
  -1.54288   -0.75256   -0.12503   -0.07416   -0.05444    0.39602
 kpt# 163, nband=  6, wtk=  1.00000, kpt=  0.4338  0.4338  0.6324 (reduced coord)
  -1.54284   -0.75193   -0.12401   -0.07929   -0.05583    0.40593
 kpt# 164, nband=  6, wtk=  1.00000, kpt=  0.4265  0.4265  0.6471 (reduced coord)
  -1.54281   -0.75129   -0.12311   -0.08424   -0.05725    0.41631
 kpt# 165, nband=  6, wtk=  1.00000, kpt=  0.4191  0.4191  0.6618 (reduced coord)
  -1.54276   -0.75064   -0.12227   -0.08879   -0.05866    0.42701
 kpt# 166, nband=  6, wtk=  1.00000, kpt=  0.4118  0.4118  0.6765 (reduced coord)
  -1.54273   -0.75002   -0.12191   -0.09269   -0.05998    0.43785
 kpt# 167, nband=  6, wtk=  1.00000, kpt=  0.4044  0.4044  0.6912 (reduced coord)
  -1.54269   -0.74943   -0.12203   -0.09556   -0.06138    0.44869
 kpt# 168, nband=  6, wtk=  1.00000, kpt=  0.3971  0.3971  0.7059 (reduced coord)
  -1.54266   -0.74890   -0.12294   -0.09720   -0.06274    0.45937
 kpt# 169, nband=  6, wtk=  1.00000, kpt=  0.3897  0.3897  0.7206 (reduced coord)
  -1.54265   -0.74844   -0.12452   -0.09759   -0.06407    0.46969
 kpt# 170, nband=  6, wtk=  1.00000, kpt=  0.3824  0.3824  0.7353 (reduced coord)
  -1.54262   -0.74807   -0.12647   -0.09695   -0.06519    0.47933
 kpt# 171, nband=  6, wtk=  1.00000, kpt=  0.3750  0.3750  0.7500 (reduced coord)
  -1.54262   -0.74781   -0.12858   -0.09561   -0.06626    0.48718
 kpt# 172, nband=  6, wtk=  1.00000, kpt=  0.3897  0.3676  0.7426 (reduced coord)
  -1.54262   -0.74792   -0.12741   -0.09652   -0.06579    0.48401
 kpt# 173, nband=  6, wtk=  1.00000, kpt=  0.4044  0.3603  0.7353 (reduced coord)
  -1.54262   -0.74803   -0.12602   -0.09763   -0.06545    0.48082
 kpt# 174, nband=  6, wtk=  1.00000, kpt=  0.4191  0.3529  0.7279 (reduced coord)
  -1.54264   -0.74814   -0.12442   -0.09890   -0.06533    0.47795
 kpt# 175, nband=  6, wtk=  1.00000, kpt=  0.4338  0.3456  0.7206 (reduced coord)
  -1.54264   -0.74824   -0.12266   -0.10027   -0.06520    0.47553
 kpt# 176, nband=  6, wtk=  1.00000, kpt=  0.4485  0.3382  0.7132 (reduced coord)
  -1.54264   -0.74833   -0.12085   -0.10172   -0.06510    0.47357
 kpt# 177, nband=  6, wtk=  1.00000, kpt=  0.4632  0.3309  0.7059 (reduced coord)
  -1.54264   -0.74840   -0.11910   -0.10315   -0.06503    0.47211
 kpt# 178, nband=  6, wtk=  1.00000, kpt=  0.4779  0.3235  0.6985 (reduced coord)
  -1.54265   -0.74845   -0.11768   -0.10438   -0.06503    0.47116
 kpt# 179, nband=  6, wtk=  1.00000, kpt=  0.4926  0.3162  0.6912 (reduced coord)
  -1.54264   -0.74847   -0.11678   -0.10514   -0.06501    0.47069
 kpt# 180, nband=  6, wtk=  1.00000, kpt=  0.5074  0.3088  0.6838 (reduced coord)
  -1.54264   -0.74847   -0.11678   -0.10514   -0.06501    0.47069
 kpt# 181, nband=  6, wtk=  1.00000, kpt=  0.5221  0.3015  0.6765 (reduced coord)
  -1.54265   -0.74845   -0.11768   -0.10438   -0.06503    0.47116
 kpt# 182, nband=  6, wtk=  1.00000, kpt=  0.5368  0.2941  0.6691 (reduced coord)
  -1.54264   -0.74840   -0.11910   -0.10315   -0.06503    0.47211
 kpt# 183, nband=  6, wtk=  1.00000, kpt=  0.5515  0.2868  0.6618 (reduced coord)
  -1.54264   -0.74833   -0.12085   -0.10172   -0.06510    0.47357
 kpt# 184, nband=  6, wtk=  1.00000, kpt=  0.5662  0.2794  0.6544 (reduced coord)
  -1.54264   -0.74824   -0.12266   -0.10027   -0.06520    0.47553
 kpt# 185, nband=  6, wtk=  1.00000, kpt=  0.5809  0.2721  0.6471 (reduced coord)
  -1.54264   -0.74814   -0.12442   -0.09890   -0.06533    0.47795
 kpt# 186, nband=  6, wtk=  1.00000, kpt=  0.5956  0.2647  0.6397 (reduced coord)
  -1.54262   -0.74803   -0.12602   -0.09763   -0.06545    0.48082
 kpt# 187, nband=  6, wtk=  1.00000, kpt=  0.6103  0.2574  0.6324 (reduced coord)
  -1.54262   -0.74792   -0.12741   -0.09652   -0.06579    0.48402
 kpt# 188, nband=  6, wtk=  1.00000, kpt=  0.6250  0.2500  0.6250 (reduced coord)
  -1.54262   -0.74781   -0.12858   -0.09561   -0.06626    0.48718
 kpt# 189, nband=  6, wtk=  1.00000, kpt=  0.6125  0.2250  0.6125 (reduced coord)
  -1.54259   -0.74748   -0.13178   -0.09272   -0.06785    0.49771
 kpt# 190, nband=  6, wtk=  1.00000, kpt=  0.6000  0.2000  0.6000 (reduced coord)
  -1.54261   -0.74721   -0.13478   -0.08996   -0.06945    0.50415
 kpt# 191, nband=  6, wtk=  1.00000, kpt=  0.5875  0.1750  0.5875 (reduced coord)
  -1.54257   -0.74698   -0.13742   -0.08697   -0.07077    0.49808
 kpt# 192, nband=  6, wtk=  1.00000, kpt=  0.5750  0.1500  0.5750 (reduced coord)
  -1.54259   -0.74679   -0.13979   -0.08442   -0.07205    0.49747
 kpt# 193, nband=  6, wtk=  1.00000, kpt=  0.5625  0.1250  0.5625 (reduced coord)
  -1.54258   -0.74664   -0.14179   -0.08195   -0.07300    0.49713
 kpt# 194, nband=  6, wtk=  1.00000, kpt=  0.5500  0.1000  0.5500 (reduced coord)
  -1.54258   -0.74653   -0.14345   -0.07979   -0.07389    0.49687
 kpt# 195, nband=  6, wtk=  1.00000, kpt=  0.5375  0.0750  0.5375 (reduced coord)
  -1.54258   -0.74644   -0.14476   -0.07802   -0.07459    0.49669
 kpt# 196, nband=  6, wtk=  1.00000, kpt=  0.5250  0.0500  0.5250 (reduced coord)
  -1.54259   -0.74639   -0.14574   -0.07672   -0.07521    0.49657
 kpt# 197, nband=  6, wtk=  1.00000, kpt=  0.5125  0.0250  0.5125 (reduced coord)
  -1.54260   -0.74636   -0.14633   -0.07594   -0.07550    0.49653
 kpt# 198, nband=  6, wtk=  1.00000, kpt=  0.5000  0.0000  0.5000 (reduced coord)
  -1.54259   -0.74635   -0.14652   -0.07560   -0.07560    0.49653

== END DATASET(S) ==============================================================

 -outvars: echo values of variables after computation  --------
-          iomode           3
            acell      7.6750000000E+00  7.6750000000E+00  7.6750000000E+00 Bohr
              amu      6.94100000E+00  1.89984032E+01
             ecut      3.00000000E+01 Hartree
-          fftalg         312
             iscf          -2
           istwfk        2    0    0    0    0    0    0    0    0    0
                         0    0    0    0    0    0    0    0    0    0
                         0    0    0    0    0    0    0    0    5    0
                         0    0    0    0    0    0    0    0    0    0
                         0    0    0    0    0    0    0    0    0    0
                       outvar_i_n : Printing only first  50 k-points.
              ixc          11
              kpt      0.00000000E+00  0.00000000E+00  0.00000000E+00
                       1.78571429E-02  0.00000000E+00  1.78571429E-02
                       3.57142857E-02  0.00000000E+00  3.57142857E-02
                       5.35714286E-02  0.00000000E+00  5.35714286E-02
                       7.14285714E-02  0.00000000E+00  7.14285714E-02
                       8.92857143E-02  0.00000000E+00  8.92857143E-02
                       1.07142857E-01  0.00000000E+00  1.07142857E-01
                       1.25000000E-01  0.00000000E+00  1.25000000E-01
                       1.42857143E-01  0.00000000E+00  1.42857143E-01
                       1.60714286E-01  0.00000000E+00  1.60714286E-01
                       1.78571429E-01  0.00000000E+00  1.78571429E-01
                       1.96428571E-01  0.00000000E+00  1.96428571E-01
                       2.14285714E-01  0.00000000E+00  2.14285714E-01
                       2.32142857E-01  0.00000000E+00  2.32142857E-01
                       2.50000000E-01  0.00000000E+00  2.50000000E-01
                       2.67857143E-01  0.00000000E+00  2.67857143E-01
                       2.85714286E-01  0.00000000E+00  2.85714286E-01
                       3.03571429E-01  0.00000000E+00  3.03571429E-01
                       3.21428571E-01  0.00000000E+00  3.21428571E-01
                       3.39285714E-01  0.00000000E+00  3.39285714E-01
                       3.57142857E-01  0.00000000E+00  3.57142857E-01
                       3.75000000E-01  0.00000000E+00  3.75000000E-01
                       3.92857143E-01  0.00000000E+00  3.92857143E-01
                       4.10714286E-01  0.00000000E+00  4.10714286E-01
                       4.28571429E-01  0.00000000E+00  4.28571429E-01
                       4.46428571E-01  0.00000000E+00  4.46428571E-01
                       4.64285714E-01  0.00000000E+00  4.64285714E-01
                       4.82142857E-01  0.00000000E+00  4.82142857E-01
                       5.00000000E-01  0.00000000E+00  5.00000000E-01
                       5.00000000E-01  1.78571429E-02  5.17857143E-01
                       5.00000000E-01  3.57142857E-02  5.35714286E-01
                       5.00000000E-01  5.35714286E-02  5.53571429E-01
                       5.00000000E-01  7.14285714E-02  5.71428571E-01
                       5.00000000E-01  8.92857143E-02  5.89285714E-01
                       5.00000000E-01  1.07142857E-01  6.07142857E-01
                       5.00000000E-01  1.25000000E-01  6.25000000E-01
                       5.00000000E-01  1.42857143E-01  6.42857143E-01
                       5.00000000E-01  1.60714286E-01  6.60714286E-01
                       5.00000000E-01  1.78571429E-01  6.78571429E-01
                       5.00000000E-01  1.96428571E-01  6.96428571E-01
                       5.00000000E-01  2.14285714E-01  7.14285714E-01
                       5.00000000E-01  2.32142857E-01  7.32142857E-01
                       5.00000000E-01  2.50000000E-01  7.50000000E-01
                       4.87500000E-01  2.62500000E-01  7.50000000E-01
                       4.75000000E-01  2.75000000E-01  7.50000000E-01
                       4.62500000E-01  2.87500000E-01  7.50000000E-01
                       4.50000000E-01  3.00000000E-01  7.50000000E-01
                       4.37500000E-01  3.12500000E-01  7.50000000E-01
                       4.25000000E-01  3.25000000E-01  7.50000000E-01
                       4.12500000E-01  3.37500000E-01  7.50000000E-01
                       outvar_i_n : Printing only first  50 k-points.
           kptopt         -11
P           mkmem          50
            natom           2
            nband           6
           nbdbuf           2
           ndivsm          10
            ngfft          30      30      30
             nkpt         198
             nsym          48
           ntypat           2
           prtden           0
            prtwf           0
            rprim      0.0000000000E+00  5.0000000000E-01  5.0000000000E-01
                       5.0000000000E-01  0.0000000000E+00  5.0000000000E-01
                       5.0000000000E-01  5.0000000000E-01  0.0000000000E+00
           shiftk      5.00000000E-01  5.00000000E-01  5.00000000E-01
          spgroup         225
           symrel      1  0  0   0  1  0   0  0  1      -1  0  0   0 -1  0   0  0 -1
                       0 -1  1   0 -1  0   1 -1  0       0  1 -1   0  1  0  -1  1  0
                      -1  0  0  -1  0  1  -1  1  0       1  0  0   1  0 -1   1 -1  0
                       0  1 -1   1  0 -1   0  0 -1       0 -1  1  -1  0  1   0  0  1
                      -1  0  0  -1  1  0  -1  0  1       1  0  0   1 -1  0   1  0 -1
                       0 -1  1   1 -1  0   0 -1  0       0  1 -1  -1  1  0   0  1  0
                       1  0  0   0  0  1   0  1  0      -1  0  0   0  0 -1   0 -1  0
                       0  1 -1   0  0 -1   1  0 -1       0 -1  1   0  0  1  -1  0  1
                      -1  0  1  -1  1  0  -1  0  0       1  0 -1   1 -1  0   1  0  0
                       0 -1  0   1 -1  0   0 -1  1       0  1  0  -1  1  0   0  1 -1
                       1  0 -1   0  0 -1   0  1 -1      -1  0  1   0  0  1   0 -1  1
                       0  1  0   0  0  1   1  0  0       0 -1  0   0  0 -1  -1  0  0
                       1  0 -1   0  1 -1   0  0 -1      -1  0  1   0 -1  1   0  0  1
                       0 -1  0   0 -1  1   1 -1  0       0  1  0   0  1 -1  -1  1  0
                      -1  0  1  -1  0  0  -1  1  0       1  0 -1   1  0  0   1 -1  0
                       0  1  0   1  0  0   0  0  1       0 -1  0  -1  0  0   0  0 -1
                       0  0 -1   0  1 -1   1  0 -1       0  0  1   0 -1  1  -1  0  1
                       1 -1  0   0 -1  1   0 -1  0      -1  1  0   0  1 -1   0  1  0
                       0  0  1   1  0  0   0  1  0       0  0 -1  -1  0  0   0 -1  0
                      -1  1  0  -1  0  0  -1  0  1       1 -1  0   1  0  0   1  0 -1
                       0  0  1   0  1  0   1  0  0       0  0 -1   0 -1  0  -1  0  0
                       1 -1  0   0 -1  0   0 -1  1      -1  1  0   0  1  0   0  1 -1
                       0  0 -1   1  0 -1   0  1 -1       0  0  1  -1  0  1   0 -1  1
                      -1  1  0  -1  0  1  -1  0  0       1 -1  0   1  0 -1   1  0  0
           tolwfr      1.00000000E-22
            typat      1  2
                       outvars : Printing only first  50 k-points.
           xangst      0.0000000000E+00  0.0000000000E+00  0.0000000000E+00
                       2.0307175380E+00  2.0307175380E+00  2.0307175380E+00
            xcart      0.0000000000E+00  0.0000000000E+00  0.0000000000E+00
                       3.8375000000E+00  3.8375000000E+00  3.8375000000E+00
             xred      0.0000000000E+00  0.0000000000E+00  0.0000000000E+00
                       5.0000000000E-01  5.0000000000E-01  5.0000000000E-01
            znucl        3.00000    9.00000

- Timing analysis has been suppressed with timopt=0

 Suggested references for the acknowledgment of ABINIT usage.

 Calculation completed.
.Delivered   0 WARNINGs and   2 COMMENTs to log file.